0 1 1 0 0 0 1 0 1 1 
0 79 22 60 69 58 71 16 40 30 
79 0 50 16 55 66 26 27 53 29 
22 50 0 19 69 21 48 75 19 28 
60 16 19 0 31 39 66 41 52 57 
69 55 69 31 0 22 64 75 28 75 
58 66 21 39 22 0 25 55 25 40 
71 26 48 66 64 25 0 32 80 43 
16 27 75 41 75 55 32 0 71 58 
40 53 19 52 28 25 80 71 0 18 
30 29 28 57 75 40 43 58 18 0 
2 50
1B 3P 4B 2P 10P 9P 5B 6B 7P 8B = 227